<instance format="XCSP3" type="COP">
  <variables>
    <array id="x" size="[60]"> 0 1 </array>
  </variables>
  <constraints>
    <sum>
      <list> x[] </list>
      <coeffs> 54 11 53 19 57 14 7 50 3 23 27 35 14 53 59 49 5 4 37 55 58 43 45 29 27 58 44 45 30 52 21 29 14 1 53 22 23 26 47 12 58 12 58 9 12 19 26 54 52 19 62 27 9 21 16 9 40 27 13 47 </coeffs>
      <condition> (le,250) </condition>
    </sum>
  </constraints>
  <objectives>
    <maximize type="sum">
      <list> x[] </list>
      <coeffs> 35 24 92 62 17 13 40 86 89 48 56 95 29 50 96 42 42 78 72 86 43 94 72 12 91 43 58 46 68 10 27 39 54 89 45 78 61 80 56 99 45 13 63 63 88 8 98 39 26 1 98 22 56 32 77 44 9 73 53 48 </coeffs>
    </maximize>
  </objectives>
</instance>
